(set-option :timeout 5000)
(declare-fun tvw_year () Int)
(assert (=  (mod  tvw_year   4 )   0 ) )
(assert (not  (or (>  (mod  tvw_year   100 )   0 ) (<  (mod  tvw_year   100 )   0 )) ) )
(assert (=  (mod  tvw_year   400 )   (+  0   1 ) ) )
(check-sat)(get-model)
